!BLYP D3BJ def2-TZVP OptTS Freq xyzfile

%geom
TS_Mode {B 3 9} end
end

%Freq
Temp 298.15
end

%pal
nprocs 6
end

*xyzfile 0 1 init_ts1.xyz
